# Solution for model r5_t9_m9_3
# Finished Task: 9 / 9
# Makespan: 562.0, Total Distance: 594.0, Total Time: 0.0170
# R O S F
0 0 5 0.0 0.0
1 1 12 0.0 0.0
2 2 8 0.0 0.0
3 3 10 0.0 0.0
4 4 9 0.0 0.0
5 0 7 371.0 410.0
6 2 11 410.0 430.0
7 0 -1 489.0 528.0
8 2 6 105.0 126.0
9 4 -1 88.0 109.0
10 3 -1 267.0 305.0
11 2 -1 528.0 562.0
12 1 13 142.0 168.0
13 1 -1 453.0 489.0
